% Auto-generated by scripts/generate_dzn.py
% problem_type   = regex
% instance       = regex_10
% source_json    = instances_json/2_high_blowup/regex_10.json
% blowup         = 19.0
% representation = NFA

mode = 1;

var_count = 38;
Q = 26;
S = 2;
q0 = 1;
F = {25, 26};
d_dfa = array2d(1..26, 1..2, [
  0, 0,
  0, 0,
  0, 0,
  0, 0,
  0, 0,
  0, 0,
  0, 0,
  0, 0,
  0, 0,
  0, 0,
  0, 0,
  0, 0,
  0, 0,
  0, 0,
  0, 0,
  0, 0,
  0, 0,
  0, 0,
  0, 0,
  0, 0,
  0, 0,
  0, 0,
  0, 0,
  0, 0,
  0, 0,
  0, 0
]);
d_nfa = array2d(1..26, 1..2, [
  {2, 4}, {3},
  {2, 4}, {3},
  {2, 4}, {3},
  {5}, {},
  {6}, {},
  {7}, {8},
  {9}, {10},
  {9}, {10},
  {11}, {12},
  {11}, {12},
  {13}, {14},
  {13}, {14},
  {15}, {16},
  {15}, {16},
  {17}, {18},
  {17}, {18},
  {19}, {20},
  {19}, {20},
  {21}, {22},
  {21}, {22},
  {23}, {24},
  {23}, {24},
  {25}, {26},
  {25}, {26},
  {}, {},
  {}, {}
]);
